0 4414
2401 4296
4802 4204
7203 4134
9604 4062
12005 3989
14406 3925
16807 3876
19208 3830
21609 3802
24010 3776
26411 3756
28812 3726
31213 3709
33614 3697
36015 3685
38416 3674
40817 3645
43218 3627
45619 3620
48020 3601
50421 3589
52822 3588
55223 3581
57624 3573
60025 3568
62426 3566
64827 3562
67228 3560
69629 3545
72030 3541
74431 3540
76832 3538
79233 3537
93639 3532
156065 3530
158466 3529
304927 3528
307328 3527
309729 3523
312130 3518
314531 3513
331338 3512
333739 3510
336140 3509
573839 3507
703493 3506
1102059 3503
1106861 3496
1109262 3494
1111663 3492
1118866 3491
